log             log.Zr-fcu_DFT_optimized_charges append
units           real
atom_style      full
boundary        p p p

pair_style      lj/cut/coul/long 12.500
bond_style      harmonic
angle_style     hybrid cosine/periodic fourier
dihedral_style  harmonic
improper_style  fourier
kspace_style    ewald 0.000001

pair_modify     tail yes mix arithmetic
dielectric      1.0
special_bonds   lj/coul 0.0 0.0 1.0
box tilt        large
read_data       data.Zr-fcu_DFT_optimized_charges

#### Atom Groupings ####
group           1        id   1316
group           fram     id   1:1315 1317:8227
#### END Atom Groupings ####

